%nprocshared=8
%chk=CCCCCCCCCCCC.chk
# opt freq=hinderedrotor M062X/6-311++g(d,p) press=0.987 symm=loose int=ultrafine

CCCCCCCCCCCC_1

0 1
C        -0.084861        7.013341        0.047902
C        -0.845662        5.689705        0.001503
C         0.084861        4.479097        0.010255
C        -0.658753        3.145893       -0.020740
C         0.274798        1.937895       -0.016612
C        -0.467218        0.603643       -0.026819
C         0.467218       -0.603643       -0.026819
C        -0.274798       -1.937895       -0.016612
C         0.658753       -3.145893       -0.020740
C        -0.084861       -4.479097        0.010255
C         0.845662       -5.689705        0.001503
C         0.084861       -7.013341        0.047902
H        -0.763030        7.868924        0.040503
H         0.527342        7.077548        0.952719
H         0.584240        7.107437       -0.811987
H        -1.473764        5.655403       -0.896129
H        -1.527273        5.625374        0.857583
H         0.720983        4.519020        0.903853
H         0.762160        4.536796       -0.850973
H        -1.299036        3.107898       -0.911434
H        -1.331114        3.087046        0.843660
H         0.922539        1.983878        0.868067
H         0.939793        1.989817       -0.888366
H        -1.119149        0.558892       -0.908728
H        -1.127878        0.550084        0.846297
H         1.127878       -0.550084        0.846297
H         1.119149       -0.558892       -0.908728
H        -0.939793       -1.989817       -0.888366
H        -0.922539       -1.983878        0.868067
H         1.331114       -3.087046        0.843660
H         1.299036       -3.107898       -0.911434
H        -0.762160       -4.536796       -0.850973
H        -0.720983       -4.519020        0.903853
H         1.527273       -5.625374        0.857583
H         1.473764       -5.655403       -0.896129
H         0.763030       -7.868924        0.040503
H        -0.584240       -7.107437       -0.811987
H        -0.527342       -7.077548        0.952719


--Link1--
%chk=CCCCCCCCCCCC.chk
# freq=(readfc,hinderedrotor) temp=200 press=0.987 geom=allcheck guess=read

--Link1--
%chk=CCCCCCCCCCCC.chk
# freq=(readfc,hinderedrotor) temp=250 press=0.987 geom=allcheck guess=read

--Link1--
%chk=CCCCCCCCCCCC.chk
# freq=(readfc,hinderedrotor) temp=300 press=0.987 geom=allcheck guess=read

--Link1--
%chk=CCCCCCCCCCCC.chk
# freq=(readfc,hinderedrotor) temp=350 press=0.987 geom=allcheck guess=read

--Link1--
%chk=CCCCCCCCCCCC.chk
# freq=(readfc,hinderedrotor) temp=400 press=0.987 geom=allcheck guess=read

--Link1--
%chk=CCCCCCCCCCCC.chk
# freq=(readfc,hinderedrotor) temp=450 press=0.987 geom=allcheck guess=read

--Link1--
%chk=CCCCCCCCCCCC.chk
# freq=(readfc,hinderedrotor) temp=500 press=0.987 geom=allcheck guess=read

--Link1--
%chk=CCCCCCCCCCCC.chk
# freq=(readfc,hinderedrotor) temp=550 press=0.987 geom=allcheck guess=read

--Link1--
%chk=CCCCCCCCCCCC.chk
# freq=(readfc,hinderedrotor) temp=600 press=0.987 geom=allcheck guess=read

--Link1--
%chk=CCCCCCCCCCCC.chk
# freq=(readfc,hinderedrotor) temp=650 press=0.987 geom=allcheck guess=read

--Link1--
%chk=CCCCCCCCCCCC.chk
# freq=(readfc,hinderedrotor) temp=700 press=0.987 geom=allcheck guess=read

--Link1--
%chk=CCCCCCCCCCCC.chk
# freq=(readfc,hinderedrotor) temp=750 press=0.987 geom=allcheck guess=read

--Link1--
%chk=CCCCCCCCCCCC.chk
# freq=(readfc,hinderedrotor) temp=800 press=0.987 geom=allcheck guess=read

--Link1--
%chk=CCCCCCCCCCCC.chk
# freq=(readfc,hinderedrotor) temp=850 press=0.987 geom=allcheck guess=read

--Link1--
%chk=CCCCCCCCCCCC.chk
# freq=(readfc,hinderedrotor) temp=900 press=0.987 geom=allcheck guess=read

--Link1--
%chk=CCCCCCCCCCCC.chk
# freq=(readfc,hinderedrotor) temp=950 press=0.987 geom=allcheck guess=read

--Link1--
%chk=CCCCCCCCCCCC.chk
# freq=(readfc,hinderedrotor) temp=1000 press=0.987 geom=allcheck guess=read

--Link1--
%chk=CCCCCCCCCCCC.chk
# freq=(readfc,hinderedrotor) temp=1050 press=0.987 geom=allcheck guess=read

--Link1--
%chk=CCCCCCCCCCCC.chk
# freq=(readfc,hinderedrotor) temp=1100 press=0.987 geom=allcheck guess=read

--Link1--
%chk=CCCCCCCCCCCC.chk
# freq=(readfc,hinderedrotor) temp=1150 press=0.987 geom=allcheck guess=read

--Link1--
%chk=CCCCCCCCCCCC.chk
# freq=(readfc,hinderedrotor) temp=1200 press=0.987 geom=allcheck guess=read

--Link1--
%chk=CCCCCCCCCCCC.chk
# freq=(readfc,hinderedrotor) temp=1250 press=0.987 geom=allcheck guess=read

--Link1--
%chk=CCCCCCCCCCCC.chk
# freq=(readfc,hinderedrotor) temp=1300 press=0.987 geom=allcheck guess=read

--Link1--
%chk=CCCCCCCCCCCC.chk
# freq=(readfc,hinderedrotor) temp=1350 press=0.987 geom=allcheck guess=read

--Link1--
%chk=CCCCCCCCCCCC.chk
# freq=(readfc,hinderedrotor) temp=1400 press=0.987 geom=allcheck guess=read

--Link1--
%chk=CCCCCCCCCCCC.chk
# freq=(readfc,hinderedrotor) temp=1450 press=0.987 geom=allcheck guess=read

--Link1--
%chk=CCCCCCCCCCCC.chk
# freq=(readfc,hinderedrotor) temp=1500 press=0.987 geom=allcheck guess=read

--Link1--
%chk=CCCCCCCCCCCC.chk
# freq=(readfc,hinderedrotor) temp=1550 press=0.987 geom=allcheck guess=read

--Link1--
%chk=CCCCCCCCCCCC.chk
# freq=(readfc,hinderedrotor) temp=1600 press=0.987 geom=allcheck guess=read

--Link1--
%chk=CCCCCCCCCCCC.chk
# freq=(readfc,hinderedrotor) temp=1650 press=0.987 geom=allcheck guess=read

--Link1--
%chk=CCCCCCCCCCCC.chk
# freq=(readfc,hinderedrotor) temp=1700 press=0.987 geom=allcheck guess=read

--Link1--
%chk=CCCCCCCCCCCC.chk
# freq=(readfc,hinderedrotor) temp=1750 press=0.987 geom=allcheck guess=read

--Link1--
%chk=CCCCCCCCCCCC.chk
# freq=(readfc,hinderedrotor) temp=1800 press=0.987 geom=allcheck guess=read

--Link1--
%chk=CCCCCCCCCCCC.chk
# freq=(readfc,hinderedrotor) temp=1850 press=0.987 geom=allcheck guess=read

--Link1--
%chk=CCCCCCCCCCCC.chk
# freq=(readfc,hinderedrotor) temp=1900 press=0.987 geom=allcheck guess=read

--Link1--
%chk=CCCCCCCCCCCC.chk
# freq=(readfc,hinderedrotor) temp=1950 press=0.987 geom=allcheck guess=read

--Link1--
%chk=CCCCCCCCCCCC.chk
# freq=(readfc,hinderedrotor) temp=2000 press=0.987 geom=allcheck guess=read

--Link1--
%chk=CCCCCCCCCCCC.chk
# freq=(readfc,hinderedrotor) temp=2050 press=0.987 geom=allcheck guess=read

--Link1--
%chk=CCCCCCCCCCCC.chk
# freq=(readfc,hinderedrotor) temp=2100 press=0.987 geom=allcheck guess=read

--Link1--
%chk=CCCCCCCCCCCC.chk
# freq=(readfc,hinderedrotor) temp=2150 press=0.987 geom=allcheck guess=read

--Link1--
%chk=CCCCCCCCCCCC.chk
# freq=(readfc,hinderedrotor) temp=2200 press=0.987 geom=allcheck guess=read

--Link1--
%chk=CCCCCCCCCCCC.chk
# freq=(readfc,hinderedrotor) temp=2250 press=0.987 geom=allcheck guess=read

--Link1--
%chk=CCCCCCCCCCCC.chk
# freq=(readfc,hinderedrotor) temp=2300 press=0.987 geom=allcheck guess=read

--Link1--
%chk=CCCCCCCCCCCC.chk
# freq=(readfc,hinderedrotor) temp=2350 press=0.987 geom=allcheck guess=read

--Link1--
%chk=CCCCCCCCCCCC.chk
# freq=(readfc,hinderedrotor) temp=2400 press=0.987 geom=allcheck guess=read

--Link1--
%chk=CCCCCCCCCCCC.chk
# freq=(readfc,hinderedrotor) temp=2450 press=0.987 geom=allcheck guess=read

--Link1--
%chk=CCCCCCCCCCCC.chk
# freq=(readfc,hinderedrotor) temp=2500 press=0.987 geom=allcheck guess=read

--Link1--
%chk=CCCCCCCCCCCC.chk
# freq=(readfc,hinderedrotor) temp=2550 press=0.987 geom=allcheck guess=read

--Link1--
%chk=CCCCCCCCCCCC.chk
# freq=(readfc,hinderedrotor) temp=2600 press=0.987 geom=allcheck guess=read

--Link1--
%chk=CCCCCCCCCCCC.chk
# freq=(readfc,hinderedrotor) temp=2650 press=0.987 geom=allcheck guess=read

--Link1--
%chk=CCCCCCCCCCCC.chk
# freq=(readfc,hinderedrotor) temp=2700 press=0.987 geom=allcheck guess=read

--Link1--
%chk=CCCCCCCCCCCC.chk
# freq=(readfc,hinderedrotor) temp=2750 press=0.987 geom=allcheck guess=read

--Link1--
%chk=CCCCCCCCCCCC.chk
# freq=(readfc,hinderedrotor) temp=2800 press=0.987 geom=allcheck guess=read

--Link1--
%chk=CCCCCCCCCCCC.chk
# freq=(readfc,hinderedrotor) temp=2850 press=0.987 geom=allcheck guess=read

--Link1--
%chk=CCCCCCCCCCCC.chk
# freq=(readfc,hinderedrotor) temp=2900 press=0.987 geom=allcheck guess=read

--Link1--
%chk=CCCCCCCCCCCC.chk
# freq=(readfc,hinderedrotor) temp=2950 press=0.987 geom=allcheck guess=read

--Link1--
%chk=CCCCCCCCCCCC.chk
# freq=(readfc,hinderedrotor) temp=3000 press=0.987 geom=allcheck guess=read

--Link1--
%chk=CCCCCCCCCCCC.chk
# freq=(readfc,hinderedrotor) temp=3050 press=0.987 geom=allcheck guess=read

--Link1--
%chk=CCCCCCCCCCCC.chk
# freq=(readfc,hinderedrotor) temp=3100 press=0.987 geom=allcheck guess=read

--Link1--
%chk=CCCCCCCCCCCC.chk
# freq=(readfc,hinderedrotor) temp=3150 press=0.987 geom=allcheck guess=read

--Link1--
%chk=CCCCCCCCCCCC.chk
# freq=(readfc,hinderedrotor) temp=3200 press=0.987 geom=allcheck guess=read

--Link1--
%chk=CCCCCCCCCCCC.chk
# freq=(readfc,hinderedrotor) temp=3250 press=0.987 geom=allcheck guess=read

--Link1--
%chk=CCCCCCCCCCCC.chk
# freq=(readfc,hinderedrotor) temp=3300 press=0.987 geom=allcheck guess=read

--Link1--
%chk=CCCCCCCCCCCC.chk
# freq=(readfc,hinderedrotor) temp=3350 press=0.987 geom=allcheck guess=read

--Link1--
%chk=CCCCCCCCCCCC.chk
# freq=(readfc,hinderedrotor) temp=3400 press=0.987 geom=allcheck guess=read

--Link1--
%chk=CCCCCCCCCCCC.chk
# freq=(readfc,hinderedrotor) temp=3450 press=0.987 geom=allcheck guess=read

--Link1--
%chk=CCCCCCCCCCCC.chk
# freq=(readfc,hinderedrotor) temp=3500 press=0.987 geom=allcheck guess=read

--Link1--
%chk=CCCCCCCCCCCC.chk
# freq=(readfc,hinderedrotor) temp=3550 press=0.987 geom=allcheck guess=read

--Link1--
%chk=CCCCCCCCCCCC.chk
# freq=(readfc,hinderedrotor) temp=3600 press=0.987 geom=allcheck guess=read

--Link1--
%chk=CCCCCCCCCCCC.chk
# freq=(readfc,hinderedrotor) temp=3650 press=0.987 geom=allcheck guess=read

--Link1--
%chk=CCCCCCCCCCCC.chk
# freq=(readfc,hinderedrotor) temp=3700 press=0.987 geom=allcheck guess=read

--Link1--
%chk=CCCCCCCCCCCC.chk
# freq=(readfc,hinderedrotor) temp=3750 press=0.987 geom=allcheck guess=read

--Link1--
%chk=CCCCCCCCCCCC.chk
# freq=(readfc,hinderedrotor) temp=3800 press=0.987 geom=allcheck guess=read

--Link1--
%chk=CCCCCCCCCCCC.chk
# freq=(readfc,hinderedrotor) temp=3850 press=0.987 geom=allcheck guess=read

--Link1--
%chk=CCCCCCCCCCCC.chk
# freq=(readfc,hinderedrotor) temp=3900 press=0.987 geom=allcheck guess=read

--Link1--
%chk=CCCCCCCCCCCC.chk
# freq=(readfc,hinderedrotor) temp=3950 press=0.987 geom=allcheck guess=read

--Link1--
%chk=CCCCCCCCCCCC.chk
# freq=(readfc,hinderedrotor) temp=4000 press=0.987 geom=allcheck guess=read

--Link1--
%chk=CCCCCCCCCCCC.chk
# freq=(readfc,hinderedrotor) temp=4050 press=0.987 geom=allcheck guess=read

--Link1--
%chk=CCCCCCCCCCCC.chk
# freq=(readfc,hinderedrotor) temp=4100 press=0.987 geom=allcheck guess=read

--Link1--
%chk=CCCCCCCCCCCC.chk
# freq=(readfc,hinderedrotor) temp=4150 press=0.987 geom=allcheck guess=read

--Link1--
%chk=CCCCCCCCCCCC.chk
# freq=(readfc,hinderedrotor) temp=4200 press=0.987 geom=allcheck guess=read

--Link1--
%chk=CCCCCCCCCCCC.chk
# freq=(readfc,hinderedrotor) temp=4250 press=0.987 geom=allcheck guess=read

--Link1--
%chk=CCCCCCCCCCCC.chk
# freq=(readfc,hinderedrotor) temp=4300 press=0.987 geom=allcheck guess=read

--Link1--
%chk=CCCCCCCCCCCC.chk
# freq=(readfc,hinderedrotor) temp=4350 press=0.987 geom=allcheck guess=read

--Link1--
%chk=CCCCCCCCCCCC.chk
# freq=(readfc,hinderedrotor) temp=4400 press=0.987 geom=allcheck guess=read

--Link1--
%chk=CCCCCCCCCCCC.chk
# freq=(readfc,hinderedrotor) temp=4450 press=0.987 geom=allcheck guess=read

--Link1--
%chk=CCCCCCCCCCCC.chk
# freq=(readfc,hinderedrotor) temp=4500 press=0.987 geom=allcheck guess=read

--Link1--
%chk=CCCCCCCCCCCC.chk
# freq=(readfc,hinderedrotor) temp=4550 press=0.987 geom=allcheck guess=read

--Link1--
%chk=CCCCCCCCCCCC.chk
# freq=(readfc,hinderedrotor) temp=4600 press=0.987 geom=allcheck guess=read

--Link1--
%chk=CCCCCCCCCCCC.chk
# freq=(readfc,hinderedrotor) temp=4650 press=0.987 geom=allcheck guess=read

--Link1--
%chk=CCCCCCCCCCCC.chk
# freq=(readfc,hinderedrotor) temp=4700 press=0.987 geom=allcheck guess=read

--Link1--
%chk=CCCCCCCCCCCC.chk
# freq=(readfc,hinderedrotor) temp=4750 press=0.987 geom=allcheck guess=read

--Link1--
%chk=CCCCCCCCCCCC.chk
# freq=(readfc,hinderedrotor) temp=4800 press=0.987 geom=allcheck guess=read

--Link1--
%chk=CCCCCCCCCCCC.chk
# freq=(readfc,hinderedrotor) temp=4850 press=0.987 geom=allcheck guess=read

--Link1--
%chk=CCCCCCCCCCCC.chk
# freq=(readfc,hinderedrotor) temp=4900 press=0.987 geom=allcheck guess=read

--Link1--
%chk=CCCCCCCCCCCC.chk
# freq=(readfc,hinderedrotor) temp=4950 press=0.987 geom=allcheck guess=read

--Link1--
%chk=CCCCCCCCCCCC.chk
# freq=(readfc,hinderedrotor) temp=5000 press=0.987 geom=allcheck guess=read
