%nprocshared=8
%chk=CCCCCCCCCCCC1=CC=CC=C1.chk
# opt freq=hinderedrotor M062X/6-311++g(d,p) symm=veryloose press=0.987

CCCCCCCCCCCC1=CC=CC=C1_1

0  1
 C                 -0.89188900    0.74076100   -0.06251400
 C                 -2.09779000   -0.19310300    0.00025400
 H                 -0.94275200    1.32981500   -0.98626200
 H                 -0.94223500    1.46007600    0.76387500
 C                 -3.43341300    0.54494900   -0.04284200
 H                 -2.04889200   -0.91039200   -0.82102000
 H                 -2.04500600   -0.78455700    0.92926400
 C                 -4.63901900   -0.38945600    0.02477800
 H                 -3.48288100    1.26091800    0.78651300
 H                 -3.48580900    1.13783600   -0.96405600
 H                 -4.59080800   -1.10393400   -0.80591000
 H                 -4.58526000   -0.98406800    0.94478400
 C                 -5.97495600    0.34837100   -0.02146900
 C                 -7.18033200   -0.58607800    0.04543600
 H                 -6.02872500    0.94361900   -0.94110300
 H                 -6.02340200    1.06225200    0.80976800
 C                 -8.51730500    0.15059600    0.00022600
 H                 -7.13353800   -1.29952600   -0.78643700
 H                 -7.12668700   -1.18264300    0.96437900
 C                 -9.71222400   -0.79722600    0.06934400
 H                 -8.56268300    0.86239100    0.83277700
 H                 -8.56970100    0.74558600   -0.91679400
 H                -10.65913100   -0.25478300    0.03668300
 H                 -9.69901800   -1.49982400   -0.76802000
 H                 -9.69223600   -1.38215700    0.99263200
 C                  0.44314900    0.00008100    0.00000900
 C                  1.64940300    0.93513800   -0.08107600
 H                  0.49262300   -0.71948100   -0.83197200
 H                  0.49505200   -0.58469100    0.91756000
 C                  2.98161700    0.19314000   -0.01988500
 H                  1.60039500    1.51882200   -1.00839800
 H                  1.59879000    1.65922400    0.74119600
 C                  4.19050700    1.13393500   -0.09940800
 H                  3.04126600   -0.38600700    0.90861500
 H                  3.03992700   -0.53245500   -0.83917500
 H                  4.14070500    1.70589900   -1.03146700
 H                  4.13900900    1.85673000    0.72104900
 C                  5.49548700    0.38203000   -0.03307000
 C                  6.10650900    0.11885900    1.19372000
 C                  6.09098900   -0.11662400   -1.19267300
 C                  7.28175000   -0.62203600    1.26225700
 H                  5.65622100    0.50282600    2.10399100
 C                  7.26607900   -0.85802000   -1.13036500
 H                  5.62841200    0.08264500   -2.15453900
 C                  7.86540400   -1.11355500    0.09901100
 H                  7.74397700   -0.81276600    2.22389700
 H                  7.71619200   -1.23356400   -2.04203000
 H                  8.78240000   -1.68837200    0.14980900


--Link1--
%chk=CCCCCCCCCCCC1=CC=CC=C1.chk
# freq=(readfc,hinderedrotor) temp=200 press=0.987 geom=allcheck guess=read

--Link1--
%chk=CCCCCCCCCCCC1=CC=CC=C1.chk
# freq=(readfc,hinderedrotor) temp=250 press=0.987 geom=allcheck guess=read

--Link1--
%chk=CCCCCCCCCCCC1=CC=CC=C1.chk
# freq=(readfc,hinderedrotor) temp=300 press=0.987 geom=allcheck guess=read

--Link1--
%chk=CCCCCCCCCCCC1=CC=CC=C1.chk
# freq=(readfc,hinderedrotor) temp=350 press=0.987 geom=allcheck guess=read

--Link1--
%chk=CCCCCCCCCCCC1=CC=CC=C1.chk
# freq=(readfc,hinderedrotor) temp=400 press=0.987 geom=allcheck guess=read

--Link1--
%chk=CCCCCCCCCCCC1=CC=CC=C1.chk
# freq=(readfc,hinderedrotor) temp=450 press=0.987 geom=allcheck guess=read

--Link1--
%chk=CCCCCCCCCCCC1=CC=CC=C1.chk
# freq=(readfc,hinderedrotor) temp=500 press=0.987 geom=allcheck guess=read

--Link1--
%chk=CCCCCCCCCCCC1=CC=CC=C1.chk
# freq=(readfc,hinderedrotor) temp=550 press=0.987 geom=allcheck guess=read

--Link1--
%chk=CCCCCCCCCCCC1=CC=CC=C1.chk
# freq=(readfc,hinderedrotor) temp=600 press=0.987 geom=allcheck guess=read

--Link1--
%chk=CCCCCCCCCCCC1=CC=CC=C1.chk
# freq=(readfc,hinderedrotor) temp=650 press=0.987 geom=allcheck guess=read

--Link1--
%chk=CCCCCCCCCCCC1=CC=CC=C1.chk
# freq=(readfc,hinderedrotor) temp=700 press=0.987 geom=allcheck guess=read

--Link1--
%chk=CCCCCCCCCCCC1=CC=CC=C1.chk
# freq=(readfc,hinderedrotor) temp=750 press=0.987 geom=allcheck guess=read

--Link1--
%chk=CCCCCCCCCCCC1=CC=CC=C1.chk
# freq=(readfc,hinderedrotor) temp=800 press=0.987 geom=allcheck guess=read

--Link1--
%chk=CCCCCCCCCCCC1=CC=CC=C1.chk
# freq=(readfc,hinderedrotor) temp=850 press=0.987 geom=allcheck guess=read

--Link1--
%chk=CCCCCCCCCCCC1=CC=CC=C1.chk
# freq=(readfc,hinderedrotor) temp=900 press=0.987 geom=allcheck guess=read

--Link1--
%chk=CCCCCCCCCCCC1=CC=CC=C1.chk
# freq=(readfc,hinderedrotor) temp=950 press=0.987 geom=allcheck guess=read

--Link1--
%chk=CCCCCCCCCCCC1=CC=CC=C1.chk
# freq=(readfc,hinderedrotor) temp=1000 press=0.987 geom=allcheck guess=read

--Link1--
%chk=CCCCCCCCCCCC1=CC=CC=C1.chk
# freq=(readfc,hinderedrotor) temp=1100 press=0.987 geom=allcheck guess=read

--Link1--
%chk=CCCCCCCCCCCC1=CC=CC=C1.chk
# freq=(readfc,hinderedrotor) temp=1200 press=0.987 geom=allcheck guess=read

--Link1--
%chk=CCCCCCCCCCCC1=CC=CC=C1.chk
# freq=(readfc,hinderedrotor) temp=1300 press=0.987 geom=allcheck guess=read

--Link1--
%chk=CCCCCCCCCCCC1=CC=CC=C1.chk
# freq=(readfc,hinderedrotor) temp=1400 press=0.987 geom=allcheck guess=read

--Link1--
%chk=CCCCCCCCCCCC1=CC=CC=C1.chk
# freq=(readfc,hinderedrotor) temp=1500 press=0.987 geom=allcheck guess=read

--Link1--
%chk=CCCCCCCCCCCC1=CC=CC=C1.chk
# freq=(readfc,hinderedrotor) temp=1600 press=0.987 geom=allcheck guess=read

--Link1--
%chk=CCCCCCCCCCCC1=CC=CC=C1.chk
# freq=(readfc,hinderedrotor) temp=1700 press=0.987 geom=allcheck guess=read

--Link1--
%chk=CCCCCCCCCCCC1=CC=CC=C1.chk
# freq=(readfc,hinderedrotor) temp=1800 press=0.987 geom=allcheck guess=read

--Link1--
%chk=CCCCCCCCCCCC1=CC=CC=C1.chk
# freq=(readfc,hinderedrotor) temp=1900 press=0.987 geom=allcheck guess=read

--Link1--
%chk=CCCCCCCCCCCC1=CC=CC=C1.chk
# freq=(readfc,hinderedrotor) temp=2000 press=0.987 geom=allcheck guess=read

--Link1--
%chk=CCCCCCCCCCCC1=CC=CC=C1.chk
# freq=(readfc,hinderedrotor) temp=2100 press=0.987 geom=allcheck guess=read

--Link1--
%chk=CCCCCCCCCCCC1=CC=CC=C1.chk
# freq=(readfc,hinderedrotor) temp=2200 press=0.987 geom=allcheck guess=read

--Link1--
%chk=CCCCCCCCCCCC1=CC=CC=C1.chk
# freq=(readfc,hinderedrotor) temp=2300 press=0.987 geom=allcheck guess=read

--Link1--
%chk=CCCCCCCCCCCC1=CC=CC=C1.chk
# freq=(readfc,hinderedrotor) temp=2400 press=0.987 geom=allcheck guess=read

--Link1--
%chk=CCCCCCCCCCCC1=CC=CC=C1.chk
# freq=(readfc,hinderedrotor) temp=2500 press=0.987 geom=allcheck guess=read

--Link1--
%chk=CCCCCCCCCCCC1=CC=CC=C1.chk
# freq=(readfc,hinderedrotor) temp=2600 press=0.987 geom=allcheck guess=read

--Link1--
%chk=CCCCCCCCCCCC1=CC=CC=C1.chk
# freq=(readfc,hinderedrotor) temp=2700 press=0.987 geom=allcheck guess=read

--Link1--
%chk=CCCCCCCCCCCC1=CC=CC=C1.chk
# freq=(readfc,hinderedrotor) temp=2800 press=0.987 geom=allcheck guess=read

--Link1--
%chk=CCCCCCCCCCCC1=CC=CC=C1.chk
# freq=(readfc,hinderedrotor) temp=2900 press=0.987 geom=allcheck guess=read

--Link1--
%chk=CCCCCCCCCCCC1=CC=CC=C1.chk
# freq=(readfc,hinderedrotor) temp=3000 press=0.987 geom=allcheck guess=read

--Link1--
%chk=CCCCCCCCCCCC1=CC=CC=C1.chk
# freq=(readfc,hinderedrotor) temp=3100 press=0.987 geom=allcheck guess=read

--Link1--
%chk=CCCCCCCCCCCC1=CC=CC=C1.chk
# freq=(readfc,hinderedrotor) temp=3200 press=0.987 geom=allcheck guess=read

--Link1--
%chk=CCCCCCCCCCCC1=CC=CC=C1.chk
# freq=(readfc,hinderedrotor) temp=3300 press=0.987 geom=allcheck guess=read

--Link1--
%chk=CCCCCCCCCCCC1=CC=CC=C1.chk
# freq=(readfc,hinderedrotor) temp=3400 press=0.987 geom=allcheck guess=read

--Link1--
%chk=CCCCCCCCCCCC1=CC=CC=C1.chk
# freq=(readfc,hinderedrotor) temp=3500 press=0.987 geom=allcheck guess=read

--Link1--
%chk=CCCCCCCCCCCC1=CC=CC=C1.chk
# freq=(readfc,hinderedrotor) temp=3600 press=0.987 geom=allcheck guess=read

--Link1--
%chk=CCCCCCCCCCCC1=CC=CC=C1.chk
# freq=(readfc,hinderedrotor) temp=3700 press=0.987 geom=allcheck guess=read

--Link1--
%chk=CCCCCCCCCCCC1=CC=CC=C1.chk
# freq=(readfc,hinderedrotor) temp=3800 press=0.987 geom=allcheck guess=read

--Link1--
%chk=CCCCCCCCCCCC1=CC=CC=C1.chk
# freq=(readfc,hinderedrotor) temp=3900 press=0.987 geom=allcheck guess=read

--Link1--
%chk=CCCCCCCCCCCC1=CC=CC=C1.chk
# freq=(readfc,hinderedrotor) temp=4000 press=0.987 geom=allcheck guess=read

--Link1--
%chk=CCCCCCCCCCCC1=CC=CC=C1.chk
# freq=(readfc,hinderedrotor) temp=4100 press=0.987 geom=allcheck guess=read

--Link1--
%chk=CCCCCCCCCCCC1=CC=CC=C1.chk
# freq=(readfc,hinderedrotor) temp=4200 press=0.987 geom=allcheck guess=read

--Link1--
%chk=CCCCCCCCCCCC1=CC=CC=C1.chk
# freq=(readfc,hinderedrotor) temp=4300 press=0.987 geom=allcheck guess=read

--Link1--
%chk=CCCCCCCCCCCC1=CC=CC=C1.chk
# freq=(readfc,hinderedrotor) temp=4400 press=0.987 geom=allcheck guess=read

--Link1--
%chk=CCCCCCCCCCCC1=CC=CC=C1.chk
# freq=(readfc,hinderedrotor) temp=4500 press=0.987 geom=allcheck guess=read

--Link1--
%chk=CCCCCCCCCCCC1=CC=CC=C1.chk
# freq=(readfc,hinderedrotor) temp=4600 press=0.987 geom=allcheck guess=read

--Link1--
%chk=CCCCCCCCCCCC1=CC=CC=C1.chk
# freq=(readfc,hinderedrotor) temp=4700 press=0.987 geom=allcheck guess=read

--Link1--
%chk=CCCCCCCCCCCC1=CC=CC=C1.chk
# freq=(readfc,hinderedrotor) temp=4800 press=0.987 geom=allcheck guess=read

--Link1--
%chk=CCCCCCCCCCCC1=CC=CC=C1.chk
# freq=(readfc,hinderedrotor) temp=4900 press=0.987 geom=allcheck guess=read

--Link1--
%chk=CCCCCCCCCCCC1=CC=CC=C1.chk
# freq=(readfc,hinderedrotor) temp=5000 press=0.987 geom=allcheck guess=read
